
Gurobi 12.0.1 (win64) logging started Sat Mar 15 13:01:37 2025

Set parameter LogFile to value "gurobi_log.txt"

Gurobi 12.0.1 (win64) logging started Sat Mar 15 13:01:39 2025

Set parameter LogFile to value "gurobi_log.txt"
Warning for adding constraints: zero or small (< 1e-13) coefficients, ignored
Gurobi Optimizer version 12.0.1 build v12.0.1rc0 (win64 - Windows Server 2019.0 (17763.2))

CPU model: Intel(R) Xeon(R) CPU E5-2667 v4 @ 3.20GHz, instruction set [SSE2|AVX|AVX2]
Thread count: 16 physical cores, 32 logical processors, using up to 32 threads

Non-default parameters:
TimeLimit  600
OptimalityTol  1e-05

Optimize a model with 30000 rows, 20000 columns and 6799964 nonzeros
Model fingerprint: 0xb195bed7
Coefficient statistics:
  Matrix range     [1e-13, 1e+01]
  Objective range  [1e+00, 1e+00]
  Bounds range     [0e+00, 0e+00]
  RHS range        [4e-25, 3e+00]
Presolve removed 18519 rows and 5544 columns
Presolve time: 2.89s
Presolved: 11481 rows, 14456 columns, 4498882 nonzeros

Concurrent LP optimizer: primal simplex, dual simplex, and barrier
Showing barrier log only...

Ordering time: 1.09s

Barrier statistics:
 Free vars  : 7132
 AA' NZ     : 1.087e+07
 Factor NZ  : 1.682e+07 (roughly 150 MB of memory)
 Factor Ops : 5.361e+10 (roughly 1 second per iteration)
 Threads    : 14

                  Objective                Residual
Iter       Primal          Dual         Primal    Dual     Compl     Time
   0   6.59777332e+05  1.41932000e+00  1.56e-11 4.00e+00  9.81e+01     8s
   1   5.81683390e+05 -1.57805933e-01  3.24e-01 3.02e-01  4.17e+01     9s
   2   1.69498749e+04  1.33261601e+00  3.41e-07 2.15e-02  1.19e+00    10s
   3   1.26892613e+03  5.54641250e+00  1.42e-06 4.77e-05  8.74e-02    11s
   4   9.04054633e+01  1.46870094e+01  4.75e-08 3.89e-06  5.24e-03    13s
   5   2.17170508e+01  1.65710939e+01  1.46e-08 3.52e-06  3.56e-04    14s
   6   1.72962300e+01  1.70226997e+01  2.73e-08 9.22e-07  1.89e-05    15s
   7   1.71052388e+01  1.70742436e+01  1.16e-08 1.51e-07  2.14e-06    16s

Barrier performed 7 iterations in 16.30 seconds (14.30 work units)
Barrier solve interrupted - model solved by another algorithm


Solved with dual simplex
Extra simplex iterations after uncrush: 8
Iteration    Objective       Primal Inf.    Dual Inf.      Time
    8067    1.7085695e+01   0.000000e+00   0.000000e+00     19s

Solved in 8067 iterations and 19.31 seconds (17.11 work units)
Optimal objective  1.708569455e+01

User-callback calls 452, time in user-callback 0.00 sec

Gurobi 12.0.1 (win64) logging started Sat Mar 15 13:02:11 2025

Set parameter LogFile to value "gurobi_log.txt"

Gurobi 12.0.1 (win64) logging started Sat Mar 15 13:02:11 2025

Set parameter LogFile to value "gurobi_log.txt"
Warning for adding constraints: zero or small (< 1e-13) coefficients, ignored
Gurobi Optimizer version 12.0.1 build v12.0.1rc0 (win64 - Windows Server 2019.0 (17763.2))

CPU model: Intel(R) Xeon(R) CPU E5-2667 v4 @ 3.20GHz, instruction set [SSE2|AVX|AVX2]
Thread count: 16 physical cores, 32 logical processors, using up to 32 threads

Non-default parameters:
TimeLimit  600
OptimalityTol  1e-05

Optimize a model with 40000 rows, 20000 columns and 6819764 nonzeros
Model fingerprint: 0xb4ba4ab3
Coefficient statistics:
  Matrix range     [1e-13, 1e+01]
  Objective range  [1e+00, 1e+00]
  Bounds range     [0e+00, 0e+00]
  RHS range        [4e-25, 3e+00]
Presolve removed 30422 rows and 8881 columns
Presolve time: 3.51s
Presolved: 9578 rows, 11119 columns, 1744118 nonzeros

Concurrent LP optimizer: primal simplex, dual simplex, and barrier
Showing barrier log only...

Ordering time: 0.35s

Barrier statistics:
 Free vars  : 3602
 AA' NZ     : 3.374e+06
 Factor NZ  : 4.645e+06 (roughly 40 MB of memory)
 Factor Ops : 7.281e+09 (less than 1 second per iteration)
 Threads    : 14

                  Objective                Residual
Iter       Primal          Dual         Primal    Dual     Compl     Time
   0   1.54009783e+04  1.41932000e+00  8.16e-01 6.75e-01  1.37e+01     6s
   1   1.05931486e+04  4.10659168e+00  2.04e-08 1.55e-07  1.44e+00     6s
   2   4.59598354e+02  8.95214893e+00  8.03e-10 2.55e-13  6.13e-02     7s
   3   5.01319085e+01  1.56380116e+01  4.58e-11 4.23e-13  4.70e-03     7s

Barrier performed 3 iterations in 6.88 seconds (5.39 work units)
Barrier solve interrupted - model solved by another algorithm


Solved with dual simplex
Extra simplex iterations after uncrush: 6
Iteration    Objective       Primal Inf.    Dual Inf.      Time
    3860    1.7085695e+01   0.000000e+00   0.000000e+00      7s

Use crossover to convert LP symmetric solution to basic solution...
Crossover log...

    5376 DPushes remaining with DInf 0.0000000e+00                 8s
       0 DPushes remaining with DInf 0.0000000e+00                 8s

       0 PPushes remaining with PInf 1.4422361e-06                 8s

  Push phase complete: Pinf 1.4422361e-06, Dinf 2.1463303e-06      8s

Iteration    Objective       Primal Inf.    Dual Inf.      Time
    7312    1.7085694e+01   1.442168e-06   0.000000e+00      9s
    7421    1.8638798e+01   7.147432e-03   5.427738e+12     15s
    7543    1.8494541e+01   6.397768e-04   9.971649e+08     18s
Warning: 1 variables dropped from basis
    7679    1.7085695e+01   2.545311e-05   0.000000e+00     20s
Warning: switch to quad precision
    8301      handle free variables                         25s
   10924      handle free variables                         30s
   12205      handle free variables                         35s
   13120      handle free variables                         40s
   14096      handle free variables                         45s
   15011      handle free variables                         50s
   15682      handle free variables                         55s
   16414      handle free variables                         60s
   17085      handle free variables                         65s
   17695      handle free variables                         70s
   18305      handle free variables                         76s
   18915      handle free variables                         81s
   19403      handle free variables                         86s
   20013      handle free variables                         91s
   20501      handle free variables                         96s
   20928      handle free variables                        100s
   21416      handle free variables                        105s
   21904      handle free variables                        110s
   22331      handle free variables                        115s
   22819      handle free variables                        120s
   23307      handle free variables                        126s
   23734      handle free variables                        130s
   24222      handle free variables                        136s
   24710      handle free variables                        141s
   25137      handle free variables                        146s
   25503      handle free variables                        150s
   25991      handle free variables                        156s
   26418      handle free variables                        161s
   26906      handle free variables                        166s
   27333      handle free variables                        171s
   27638      handle free variables                        176s
   27920   -3.3106330e+32   2.115835e+36   3.310634e+02    183s
   28042   -3.0570047e+32   4.164536e+36   3.057007e+02    186s
   28286   -2.5757719e+32   2.449330e+36   2.575776e+02    192s
   28408   -2.2705424e+32   3.239013e+37   2.270548e+02    196s
   28652   -1.9319908e+32   5.469986e+35   1.931998e+02    203s
   28774   -1.7693321e+32   1.956361e+36   1.769340e+02    206s
   29018   -1.6106851e+32   6.369784e+35   1.610696e+02    211s
   29262   -1.3405405e+32   5.846025e+35   1.340553e+02    218s
   29506   -9.8692709e+31   4.168723e+35   9.869400e+01    222s
   29628   -9.4822691e+31   6.649209e+35   9.482409e+01    225s
   29872   -8.6323758e+31   2.741611e+36   8.632540e+01    231s
   30116   -6.4026407e+31   2.806176e+36   6.402805e+01    238s
   30238   -4.8924361e+31   3.507543e+36   4.892601e+01    242s
   30482   -2.2768584e+31   4.489009e+35   2.277024e+01    248s
   30604   -1.6000595e+31   2.273526e+35   1.600227e+01    251s
   30726   -7.5905837e+30   1.196065e+35   7.592259e+00    255s
   30970   -5.0878672e+29   2.620787e+34   5.104619e-01    261s
   31207    5.4095885e+00   2.148882e+03   0.000000e+00    267s
   31329    7.8471989e+00   7.396691e+03   0.000000e+00    271s
   31573    1.2810749e+01   7.839257e+02   0.000000e+00    277s
   31695    1.6254232e+01   2.605039e+02   0.000000e+00    280s
   31939    1.6645669e+01   4.507115e+02   0.000000e+00    286s
   32183    1.6885178e+01   1.385781e+02   0.000000e+00    292s
   32410    1.7010237e+01   1.109705e+00   0.000000e+00    299s
   32532    1.7039573e+01   1.821622e+01   0.000000e+00    303s
   32654    1.7064026e+01   8.628840e+00   0.000000e+00    306s
   32898    1.7080034e+01   2.011685e+00   0.000000e+00    312s
   33020    1.7083010e+01   9.988083e-01   0.000000e+00    315s
   33264    1.7085010e+01   1.116758e+00   0.000000e+00    322s
   33508    1.7085493e+01   2.167589e-02   0.000000e+00    327s
   33757    1.7085650e+01   2.818431e-03   0.000000e+00    334s
Extra simplex iterations after uncrush: 62

Stopped in 33820 iterations and 337.27 seconds (341.58 work units)
Numeric error

User-callback calls 30391, time in user-callback 0.08 sec
